300,25
576,261
751,309
769,392
709,397
474,438
482,470
448,639
620,791
570,748
523,188
491,32
839,188
975,257
831,406
727,702
600,566
575,512
672,465
871,780
945,770
892,697
909,332
947,448
1041,406
1045,670
1194,572
281,202
356,457
732,81
718,169
681,46
760,-97
1125,476
804,237
786,261
